c read Graph
c width = 47
c time = 729 ms
c width = 5
c time = 962 ms
c width = 5
c time = 3745 ms
s td 56 6 60
b 1 1 2 13
b 2 2 3 13 14
b 3 10 11 23 24
b 4 3 13 14 25
b 5 10 23 24 36
b 6 25 37 38 50
b 7 36 47 48 59
b 8 25 38 50 51
b 9 36 47 58 59
b 10 3 4 5 16
b 11 5 6 7 18
b 12 7 8 9 20
b 13 3 14 15 25 26
b 14 10 22 23 35 36
b 15 9 10 22 35 36
b 16 25 26 38 39 51
b 17 35 36 46 47 58
b 18 25 26 39 51 52
b 19 41 52 53 54
b 20 43 54 55 56
b 21 45 56 57 58
b 22 5 16 17 18 29
b 23 7 18 19 20 31
b 24 9 20 21 22 33
b 25 22 33 34 35 46
b 26 9 22 35 36 46 58
b 27 9 22 33 35 46 58
b 28 9 20 22 33 46 58
b 29 9 20 33 45 46 58
b 30 7 9 20 33 45 58
b 31 7 20 32 33 45 58
b 32 32 43 44 45 56
b 33 7 20 32 45 56 58
b 34 7 20 32 43 45 56
b 35 7 20 31 32 43 56
b 36 7 18 20 31 43 56
b 37 5 7 18 31 43 56
b 38 5 18 30 31 43 56
b 39 30 41 42 43 54
b 40 5 18 30 43 54 56
b 41 5 18 30 41 43 54
b 42 5 18 29 30 41 54
b 43 5 16 18 29 41 54
b 44 3 5 16 29 41 54
b 45 3 16 28 29 41 54
b 46 3 15 16 28 41 54
b 47 15 26 27 28 39
b 48 28 39 40 41 52
b 49 3 15 28 41 52 54
b 50 3 15 25 26 39 52
b 51 3 15 26 28 39 52
b 52 3 15 28 39 41 52
b 53 28 39 41 52
b 54 48 59 60
b 55 37 49 50
b 56 11 12 24
1 2
2 4
3 56
3 5
4 13
5 14
6 55
6 8
7 54
7 9
8 16
9 17
10 44
11 37
12 30
13 50
14 15
15 26
16 18
17 26
18 50
19 49
20 40
21 33
22 43
23 36
24 28
25 27
26 27
27 28
28 29
29 30
30 31
31 33
32 34
33 34
34 35
35 36
36 37
37 38
38 40
39 41
40 41
41 42
42 43
43 44
44 45
45 46
46 49
47 51
48 53
49 52
50 51
51 52
52 53
